s td 10 21 30
b 1 1 2 9 10 11 12 14 17 18 20 27 29 30
b 2 2 3 4 9 10 11 12 14 15 16 17 18 19 20 21 24 25 27 28 29 30
b 3 3 5 9 14 15 16 18 19 20 21 24
b 4 2 3 4 8 9 10 11 12 15 16 17 18 19 20 21 24 25 27 28 29 30
b 5 2 3 8 9 10 11 15 16 17 18 19 21 22 25 27 28 29 30
b 6 3 6 8 9 10 15 17 19 21 22 27 28
b 7 3 8 9 11 12 16 17 21 23 24 28 30
b 8 2 3 4 7 9 10 14 15 16 18 19 20 24 25 27 28 30
b 9 2 3 4 7 9 13 14 15 16 19 20 24 28 30
b 10 2 11 12 14 15 16 17 18 20 25 26 27 29 30
1 2
2 3
2 4
2 8
2 10
4 5
4 7
5 6
8 9
